
******************************************************************************
This program contains Ipopt, a library for large-scale nonlinear optimization.
 Ipopt is released as open source code under the Eclipse Public License (EPL).
         For more information visit http://projects.coin-or.org/Ipopt

This version of Ipopt was compiled from source code available at
    https://github.com/IDAES/Ipopt as part of the Institute for the Design of
    Advanced Energy Systems Process Systems Engineering Framework (IDAES PSE
    Framework) Copyright (c) 2018-2019. See https://github.com/IDAES/idaes-pse.

This version of Ipopt was compiled using HSL, a collection of Fortran codes
    for large-scale scientific computation.  All technical papers, sales and
    publicity material resulting from use of the HSL codes within IPOPT must
    contain the following acknowledgement:
        HSL, a collection of Fortran codes for large-scale scientific
        computation. See http://www.hsl.rl.ac.uk.
******************************************************************************

This is Ipopt version 3.13.2, running with linear solver ma27.

Number of nonzeros in equality constraint Jacobian...:      808
Number of nonzeros in inequality constraint Jacobian.:        0
Number of nonzeros in Lagrangian Hessian.............:      702

Total number of variables............................:      351
                     variables with only lower bounds:      108
                variables with lower and upper bounds:      189
                     variables with only upper bounds:        0
Total number of equality constraints.................:      350
Total number of inequality constraints...............:        0
        inequality constraints with only lower bounds:        0
   inequality constraints with lower and upper bounds:        0
        inequality constraints with only upper bounds:        0

iter    objective    inf_pr   inf_du lg(mu)  ||d||  lg(rg) alpha_du alpha_pr  ls
   0  0.0000000e+00 4.52e-01 8.88e-16  -1.0 0.00e+00    -  0.00e+00 0.00e+00   0
   1  4.0528838e+00 2.39e+00 4.41e+04  -1.0 2.60e+05    -  4.48e-01 4.74e-01h  1
   2  4.8008084e+00 2.18e+00 4.08e+04  -1.0 1.60e+05    -  7.96e-01 6.97e-02h  1
   3  5.1399146e+00 2.12e+00 3.96e+04  -1.0 2.07e+05    -  8.02e-01 3.08e-02h  1
   4  2.6311988e+01 2.00e-01 7.90e+03  -1.0 2.03e+05    -  8.11e-01 9.90e-01h  1
   5  3.0362026e+01 3.93e-03 2.50e+03  -1.0 2.54e+04    -  9.66e-01 9.90e-01h  1
   6  3.0449971e+01 5.98e-05 2.73e+01  -1.0 5.34e+02    -  9.90e-01 9.90e-01h  1
   7  3.0451468e+01 5.80e-05 2.02e+07  -1.0 6.44e+02    -  9.90e-01 3.09e-02f  6
   8  3.0455006e+01 5.63e-05 4.05e+07  -1.0 1.54e+03    -  9.94e-01 3.09e-02f  6
   9  3.0566445e+01 7.04e-05 6.30e+05  -1.0 1.52e+03    -  1.00e+00 9.90e-01H  1
iter    objective    inf_pr   inf_du lg(mu)  ||d||  lg(rg) alpha_du alpha_pr  ls
  10  3.0566906e+01 7.50e-07 2.24e+07  -1.0 6.14e+00    -  1.00e+00 9.90e-01h  1
  11  3.0566907e+01 7.50e-09 2.24e+09  -1.0 1.26e-02    -  1.00e+00 9.90e-01h  1
  12  3.0566907e+01 1.50e-10 2.24e+11  -1.0 1.26e-04    -  1.00e+00 9.90e-01h  1
In iteration 12, 27 Slacks too small, adjusting variable bounds
  13  3.0566907e+01 9.04e-11 2.24e+13  -1.0 1.39e-04    -  1.00e+00 9.90e-01h  1
  14  3.0566907e+01 5.33e-11 5.00e-01  -1.0 8.31e-05    -  1.00e+00 1.00e+00H  1
  15  3.0566878e+01 4.84e-11 2.28e+13  -9.0 1.83e+03    -  9.98e-01 2.09e-04f 13
  16  3.0566875e+01 4.95e-11 2.29e+13  -9.0 1.57e+03    -  9.99e-01 3.04e-05f 16
  17  3.0566873e+01 4.89e-11 2.29e+13  -9.0 1.56e+03    -  1.00e+00 1.53e-05f 17
  18  3.0566866e+01 5.24e-11 2.29e+13  -9.0 1.56e+03    -  1.00e+00 6.10e-05f 15
  19  3.0566866e+01 5.22e-11 2.29e+13  -9.0 1.56e+03    -  1.00e+00 1.91e-06f 20
iter    objective    inf_pr   inf_du lg(mu)  ||d||  lg(rg) alpha_du alpha_pr  ls
  20  3.0451030e+01 9.29e-04 4.17e+05  -9.0 1.56e+03    -  1.00e+00 1.00e+00f  1
  21  3.0449879e+01 1.21e-08 3.31e-04  -9.0 1.47e+01    -  1.00e+00 1.00e+00h  1
  22  3.0449879e+01 1.59e-11 3.42e-11  -9.0 1.27e-04    -  1.00e+00 1.00e+00h  1

Number of Iterations....: 22

                                   (scaled)                 (unscaled)
Objective...............:   3.0449879094404160e+01    3.0449879094404160e+01
Dual infeasibility......:   3.4232145616643836e-11    3.4232145616643836e-11
Constraint violation....:   1.5880102788301542e-11    1.5880102788301542e-11
Complementarity.........:   9.0909094071243780e-10    9.0909094071243780e-10
Overall NLP error.......:   1.5880102788301542e-11    9.0909094071243780e-10


Number of objective function evaluations             = 133
Number of objective gradient evaluations             = 23
Number of equality constraint evaluations            = 133
Number of inequality constraint evaluations          = 0
Number of equality constraint Jacobian evaluations   = 23
Number of inequality constraint Jacobian evaluations = 0
Number of Lagrangian Hessian evaluations             = 22
Total CPU secs in IPOPT (w/o function evaluations)   =      0.045
Total CPU secs in NLP function evaluations           =      0.906

EXIT: Optimal Solution Found.
